
Gurobi 12.0.2 (win64) logging started Fri Jun  6 10:09:38 2025

Set parameter LogFile to value "C:\Ioana\_uni\honours\slp\algorithm\Main_files\results\others\prox_tubules_new\Task_004_Sample002_irr_gurobi.log"
Gurobi Optimizer version 12.0.2 build v12.0.2rc0 (win64 - Windows 11.0 (26100.2))

CPU model: Intel(R) Core(TM) Ultra 5 125H, instruction set [SSE2|AVX|AVX2]
Thread count: 14 physical cores, 18 logical processors, using up to 18 threads

Non-default parameters:
TimeLimit  2200

Optimize a model with 47658 rows, 34811 columns and 147858 nonzeros
Model fingerprint: 0xada2deeb
Variable types: 17417 continuous, 17394 integer (17394 binary)
Coefficient statistics:
  Matrix range     [1e-04, 8e+04]
  Objective range  [1e-04, 9e-01]
  Bounds range     [1e+00, 1e+03]
  RHS range        [1e+00, 1e+00]
Presolve removed 31249 rows and 21846 columns
Presolve time: 0.31s
Presolved: 16409 rows, 12965 columns, 54600 nonzeros
Variable types: 6419 continuous, 6546 integer (6546 binary)

Root relaxation: objective 8.877157e-03, 2923 iterations, 0.22 seconds (0.39 work units)

    Nodes    |    Current Node    |     Objective Bounds      |     Work
 Expl Unexpl |  Obj  Depth IntInf | Incumbent    BestBd   Gap | It/Node Time

     0     0    0.00888    0   16          -    0.00888      -     -    0s
H    0     0                       6.2044903    0.00888   100%     -    0s
     0     0    1.86548    0   33    6.20449    1.86548  69.9%     -    1s
     0     0    1.86548    0   34    6.20449    1.86548  69.9%     -    1s
     0     0    1.86895    0   33    6.20449    1.86895  69.9%     -    1s
     0     0    3.77121    0   24    6.20449    3.77121  39.2%     -    1s
     0     0    3.84233    0   24    6.20449    3.84233  38.1%     -    1s
     0     0    3.84233    0   26    6.20449    3.84233  38.1%     -    1s
     0     0    4.49805    0   32    6.20449    4.49805  27.5%     -    1s
     0     0    4.49805    0   26    6.20449    4.49805  27.5%     -    1s
     0     0    4.50069    0   27    6.20449    4.50069  27.5%     -    1s
     0     0    4.50070    0   29    6.20449    4.50070  27.5%     -    1s
     0     0    5.45260    0   16    6.20449    5.45260  12.1%     -    1s
     0     0    5.45260    0    5    6.20449    5.45260  12.1%     -    1s
     0     0     cutoff    0         6.20449    6.20449  0.00%     -    1s

Cutting planes:
  Gomory: 2
  Cover: 2
  MIR: 16
  Flow cover: 22
  Flow path: 4
  Network: 5
  Relax-and-lift: 3

Explored 1 nodes (6135 simplex iterations) in 1.96 seconds (2.24 work units)
Thread count was 18 (of 18 available processors)

Solution count 1: 6.20449 

Optimal solution found (tolerance 1.00e-04)
Best objective 6.204490320112e+00, best bound 6.204490320112e+00, gap 0.0000%

Gurobi 12.0.2 (win64) logging started Fri Jun  6 14:25:44 2025

Set parameter LogFile to value "C:\Ioana\_uni\honours\slp\algorithm\Main_files\results\others\prox_tubules_new\Task_004_Sample002_irr_gurobi.log"
Gurobi Optimizer version 12.0.2 build v12.0.2rc0 (win64 - Windows 11.0 (26100.2))

CPU model: Intel(R) Core(TM) Ultra 5 125H, instruction set [SSE2|AVX|AVX2]
Thread count: 14 physical cores, 18 logical processors, using up to 18 threads

Non-default parameters:
TimeLimit  2200

Optimize a model with 47658 rows, 34811 columns and 147858 nonzeros
Model fingerprint: 0xada2deeb
Variable types: 17417 continuous, 17394 integer (17394 binary)
Coefficient statistics:
  Matrix range     [1e-04, 8e+04]
  Objective range  [1e-04, 9e-01]
  Bounds range     [1e+00, 1e+03]
  RHS range        [1e+00, 1e+00]
Presolve removed 31249 rows and 21846 columns
Presolve time: 0.31s
Presolved: 16409 rows, 12965 columns, 54600 nonzeros
Variable types: 6419 continuous, 6546 integer (6546 binary)

Root relaxation: objective 8.877157e-03, 2923 iterations, 0.22 seconds (0.39 work units)

    Nodes    |    Current Node    |     Objective Bounds      |     Work
 Expl Unexpl |  Obj  Depth IntInf | Incumbent    BestBd   Gap | It/Node Time

     0     0    0.00888    0   16          -    0.00888      -     -    0s
H    0     0                       6.2044903    0.00888   100%     -    0s
     0     0    1.86548    0   33    6.20449    1.86548  69.9%     -    1s
     0     0    1.86548    0   34    6.20449    1.86548  69.9%     -    1s
     0     0    1.86895    0   33    6.20449    1.86895  69.9%     -    1s
     0     0    3.77121    0   24    6.20449    3.77121  39.2%     -    1s
     0     0    3.84233    0   24    6.20449    3.84233  38.1%     -    1s
     0     0    3.84233    0   26    6.20449    3.84233  38.1%     -    1s
     0     0    4.49805    0   32    6.20449    4.49805  27.5%     -    1s
     0     0    4.49805    0   26    6.20449    4.49805  27.5%     -    1s
     0     0    4.50069    0   27    6.20449    4.50069  27.5%     -    1s
     0     0    4.50070    0   29    6.20449    4.50070  27.5%     -    1s
     0     0    5.45260    0   16    6.20449    5.45260  12.1%     -    1s
     0     0    5.45260    0    5    6.20449    5.45260  12.1%     -    1s
     0     0     cutoff    0         6.20449    6.20449  0.00%     -    1s

Cutting planes:
  Gomory: 2
  Cover: 2
  MIR: 16
  Flow cover: 22
  Flow path: 4
  Network: 5
  Relax-and-lift: 3

Explored 1 nodes (6135 simplex iterations) in 1.95 seconds (2.24 work units)
Thread count was 18 (of 18 available processors)

Solution count 1: 6.20449 

Optimal solution found (tolerance 1.00e-04)
Best objective 6.204490320112e+00, best bound 6.204490320112e+00, gap 0.0000%
